VACCINE = Vaccine(1..3);
m = 24;
age = [YOUTH, AGED, BABY, YOUTH, ADULT, ANCIENT, SENIOR, SENIOR, AGED, ADULT, ANCIENT, ADULT, ANCIENT, BABY, ANCIENT, AGED, CHILD, SENIOR, SENIOR, YOUTH, CHILD, CHILD, YOUTH, CHILD];
gender = [FEMALE, FEMALE, MALE, FEMALE, MALE, FEMALE, FEMALE, MALE, OTHER, OTHER, MALE, MALE, OTHER, FEMALE, MALE, MALE, FEMALE, OTHER, OTHER, OTHER, MALE, FEMALE, FEMALE, MALE];
health = [COMPROMISED, POOR, COMPROMISED, POOR, COMPROMISED, POOR, POOR, GOOD, POOR, POOR, COMPROMISED, COMPROMISED, COMPROMISED, COMPROMISED, POOR, COMPROMISED, POOR, GOOD, COMPROMISED, COMPROMISED, POOR, POOR, GOOD, COMPROMISED];
exposure = [HIGH, HIGH, LOW, HIGH, AVERAGE, LOW, LOW, AVERAGE, HIGH, AVERAGE, LOW, HIGH, LOW, EXTREME, EXTREME, LOW, LOW, AVERAGE, EXTREME, AVERAGE, EXTREME, EXTREME, EXTREME, EXTREME];
size = [5, 5, 4, 8, 5, 9, 7, 7, 6, 7, 9, 6, 4, 4, 8, 7, 9, 9, 7, 4, 9, 7, 4, 6];
minsize = 4;
age_group_min = [0, 0, 1, 0, 0, 0, 0];
age_group_max = [22, 15, 24, 17, 24, 12, 23];
max_people_diff = 87;
max_share_vaccines = 3;
health_information = {6, 8, 11};
exposure_information = {11, 14, 15, 16};